(set-info :smt-lib-version 2.6)
(set-logic QF_LRA)
(set-info :source |
TLP-GP automated DTP to SMT-LIB encoding for planning
by F.Maris and P.Regnier, IRIT - Universite Paul Sabatier, Toulouse

|)
(set-info :category "industrial")
(set-info :status sat)
(declare-fun St_spy_variable () Real)
(declare-fun t_Init_0 () Real)
(declare-fun t_Goal_4 () Real)
(declare-fun t_C_rb_ga1_gc1_3 () Real)
(declare-fun t_A_ra_ga2_gb1_1 () Real)
(declare-fun t_B_ra_rb_gb2_2 () Real)
(declare-fun t_C_rb_ga1_gc2_3 () Real)
(declare-fun t_A_ra_ga3_gb1_1 () Real)
(declare-fun t_B_ra_rb_gb3_2 () Real)
(declare-fun t_C_rb_ga1_gc3_3 () Real)
(declare-fun t_A_ra_ga4_gb1_1 () Real)
(declare-fun t_B_ra_rb_gb4_2 () Real)
(declare-fun t_C_rb_ga1_gc4_3 () Real)
(declare-fun t_A_ra_ga5_gb1_1 () Real)
(declare-fun t_B_ra_rb_gb5_2 () Real)
(declare-fun t_C_rb_ga1_gc5_3 () Real)
(declare-fun t_A_ra_ga6_gb1_1 () Real)
(declare-fun t_B_ra_rb_gb6_2 () Real)
(declare-fun t_C_rb_ga1_gc6_3 () Real)
(declare-fun t_A_ra_ga7_gb1_1 () Real)
(declare-fun t_B_ra_rb_gb7_2 () Real)
(declare-fun t_A_ra_ga1_gb1_1 () Real)
(declare-fun t_B_ra_rb_gb1_2 () Real)
(declare-fun t_C_rb_ga1_gc7_3 () Real)
(assert (let ((?v_10 (- t_Goal_4 t_C_rb_ga1_gc1_3)) (?v_11 (- t_Goal_4 t_A_ra_ga2_gb1_1)) (?v_20 (- t_Goal_4 t_B_ra_rb_gb2_2)) (?v_22 (- t_Goal_4 t_C_rb_ga1_gc2_3)) (?v_23 (- t_Goal_4 t_A_ra_ga3_gb1_1)) (?v_25 (- t_Goal_4 t_B_ra_rb_gb3_2)) (?v_27 (- t_Goal_4 t_C_rb_ga1_gc3_3)) (?v_28 (- t_Goal_4 t_A_ra_ga4_gb1_1)) (?v_30 (- t_Goal_4 t_B_ra_rb_gb4_2)) (?v_32 (- t_Goal_4 t_C_rb_ga1_gc4_3)) (?v_33 (- t_Goal_4 t_A_ra_ga5_gb1_1)) (?v_35 (- t_Goal_4 t_B_ra_rb_gb5_2)) (?v_37 (- t_Goal_4 t_C_rb_ga1_gc5_3)) (?v_38 (- t_Goal_4 t_A_ra_ga6_gb1_1)) (?v_40 (- t_Goal_4 t_B_ra_rb_gb6_2)) (?v_42 (- t_Goal_4 t_C_rb_ga1_gc6_3)) (?v_43 (- t_Goal_4 t_A_ra_ga7_gb1_1)) (?v_45 (- t_Goal_4 t_B_ra_rb_gb7_2)) (?v_0 (- t_Goal_4 t_A_ra_ga1_gb1_1)) (?v_1 (- t_Goal_4 t_B_ra_rb_gb1_2)) (?v_48 (- t_Goal_4 t_C_rb_ga1_gc7_3)) (?v_46 (- t_B_ra_rb_gb1_2 t_A_ra_ga1_gb1_1))) (let ((?v_12 (< ?v_46 5)) (?v_44 (- t_B_ra_rb_gb7_2 t_A_ra_ga1_gb1_1))) (let ((?v_13 (< ?v_44 5)) (?v_39 (- t_B_ra_rb_gb6_2 t_A_ra_ga1_gb1_1))) (let ((?v_14 (< ?v_39 5)) (?v_34 (- t_B_ra_rb_gb5_2 t_A_ra_ga1_gb1_1))) (let ((?v_15 (< ?v_34 5)) (?v_29 (- t_B_ra_rb_gb4_2 t_A_ra_ga1_gb1_1))) (let ((?v_16 (< ?v_29 5)) (?v_24 (- t_B_ra_rb_gb3_2 t_A_ra_ga1_gb1_1))) (let ((?v_17 (< ?v_24 5)) (?v_19 (- t_B_ra_rb_gb2_2 t_A_ra_ga1_gb1_1))) (let ((?v_18 (< ?v_19 5)) (?v_47 (- t_C_rb_ga1_gc7_3 t_B_ra_rb_gb1_2))) (let ((?v_2 (< ?v_47 4)) (?v_41 (- t_C_rb_ga1_gc6_3 t_B_ra_rb_gb1_2))) (let ((?v_3 (< ?v_41 4)) (?v_36 (- t_C_rb_ga1_gc5_3 t_B_ra_rb_gb1_2))) (let ((?v_4 (< ?v_36 4)) (?v_31 (- t_C_rb_ga1_gc4_3 t_B_ra_rb_gb1_2))) (let ((?v_5 (< ?v_31 4)) (?v_26 (- t_C_rb_ga1_gc3_3 t_B_ra_rb_gb1_2))) (let ((?v_6 (< ?v_26 4)) (?v_21 (- t_C_rb_ga1_gc2_3 t_B_ra_rb_gb1_2))) (let ((?v_7 (< ?v_21 4)) (?v_9 (- t_C_rb_ga1_gc1_3 t_B_ra_rb_gb1_2))) (let ((?v_8 (< ?v_9 4)) (?v_49 (- t_A_ra_ga7_gb1_1 t_A_ra_ga1_gb1_1))) (let ((?v_229 (< ?v_49 5)) (?v_228 (> ?v_49 5))) (let ((?v_116 (or ?v_229 ?v_228)) (?v_50 (- t_A_ra_ga6_gb1_1 t_A_ra_ga1_gb1_1))) (let ((?v_220 (< ?v_50 5)) (?v_219 (> ?v_50 5))) (let ((?v_117 (or ?v_220 ?v_219)) (?v_51 (- t_A_ra_ga5_gb1_1 t_A_ra_ga1_gb1_1))) (let ((?v_207 (< ?v_51 5)) (?v_206 (> ?v_51 5))) (let ((?v_118 (or ?v_207 ?v_206)) (?v_52 (- t_A_ra_ga4_gb1_1 t_A_ra_ga1_gb1_1))) (let ((?v_190 (< ?v_52 5)) (?v_189 (> ?v_52 5))) (let ((?v_119 (or ?v_190 ?v_189)) (?v_53 (- t_A_ra_ga3_gb1_1 t_A_ra_ga1_gb1_1))) (let ((?v_164 (< ?v_53 5)) (?v_163 (> ?v_53 5))) (let ((?v_120 (or ?v_164 ?v_163)) (?v_54 (- t_A_ra_ga2_gb1_1 t_A_ra_ga1_gb1_1))) (let ((?v_110 (< ?v_54 5)) (?v_109 (> ?v_54 5)) (?v_81 (< ?v_46 1)) (?v_55 (> ?v_46 1))) (let ((?v_121 (or ?v_81 ?v_55)) (?v_74 (< ?v_0 6)) (?v_56 (- t_A_ra_ga1_gb1_1 t_A_ra_ga7_gb1_1))) (let ((?v_134 (> ?v_56 5)) (?v_57 (- t_A_ra_ga1_gb1_1 t_A_ra_ga6_gb1_1))) (let ((?v_135 (> ?v_57 5)) (?v_58 (- t_A_ra_ga1_gb1_1 t_A_ra_ga5_gb1_1))) (let ((?v_136 (> ?v_58 5)) (?v_59 (- t_A_ra_ga1_gb1_1 t_A_ra_ga4_gb1_1))) (let ((?v_137 (> ?v_59 5)) (?v_60 (- t_A_ra_ga1_gb1_1 t_A_ra_ga3_gb1_1))) (let ((?v_138 (> ?v_60 5)) (?v_61 (- t_A_ra_ga1_gb1_1 t_A_ra_ga2_gb1_1))) (let ((?v_102 (> ?v_61 5)) (?v_123 (- t_C_rb_ga1_gc7_3 t_A_ra_ga1_gb1_1))) (let ((?v_122 (< ?v_123 4)) (?v_125 (- t_C_rb_ga1_gc6_3 t_A_ra_ga1_gb1_1))) (let ((?v_124 (< ?v_125 4)) (?v_127 (- t_C_rb_ga1_gc5_3 t_A_ra_ga1_gb1_1))) (let ((?v_126 (< ?v_127 4)) (?v_129 (- t_C_rb_ga1_gc4_3 t_A_ra_ga1_gb1_1))) (let ((?v_128 (< ?v_129 4)) (?v_131 (- t_C_rb_ga1_gc3_3 t_A_ra_ga1_gb1_1))) (let ((?v_130 (< ?v_131 4)) (?v_133 (- t_C_rb_ga1_gc2_3 t_A_ra_ga1_gb1_1))) (let ((?v_132 (< ?v_133 4)) (?v_100 (- t_C_rb_ga1_gc1_3 t_A_ra_ga1_gb1_1))) (let ((?v_101 (< ?v_100 4)) (?v_62 (- t_B_ra_rb_gb7_2 t_B_ra_rb_gb1_2))) (let ((?v_231 (< ?v_62 4)) (?v_230 (> ?v_62 4))) (let ((?v_75 (or ?v_231 ?v_230)) (?v_63 (- t_B_ra_rb_gb6_2 t_B_ra_rb_gb1_2))) (let ((?v_224 (< ?v_63 4)) (?v_223 (> ?v_63 4))) (let ((?v_76 (or ?v_224 ?v_223)) (?v_64 (- t_B_ra_rb_gb5_2 t_B_ra_rb_gb1_2))) (let ((?v_213 (< ?v_64 4)) (?v_212 (> ?v_64 4))) (let ((?v_77 (or ?v_213 ?v_212)) (?v_65 (- t_B_ra_rb_gb4_2 t_B_ra_rb_gb1_2))) (let ((?v_198 (< ?v_65 4)) (?v_197 (> ?v_65 4))) (let ((?v_78 (or ?v_198 ?v_197)) (?v_66 (- t_B_ra_rb_gb3_2 t_B_ra_rb_gb1_2))) (let ((?v_179 (< ?v_66 4)) (?v_178 (> ?v_66 4))) (let ((?v_79 (or ?v_179 ?v_178)) (?v_67 (- t_B_ra_rb_gb2_2 t_B_ra_rb_gb1_2))) (let ((?v_145 (< ?v_67 4)) (?v_144 (> ?v_67 4))) (let ((?v_80 (or ?v_145 ?v_144)) (?v_68 (- t_B_ra_rb_gb1_2 t_B_ra_rb_gb7_2))) (let ((?v_94 (> ?v_68 4)) (?v_69 (- t_B_ra_rb_gb1_2 t_B_ra_rb_gb6_2))) (let ((?v_95 (> ?v_69 4)) (?v_70 (- t_B_ra_rb_gb1_2 t_B_ra_rb_gb5_2))) (let ((?v_96 (> ?v_70 4)) (?v_71 (- t_B_ra_rb_gb1_2 t_B_ra_rb_gb4_2))) (let ((?v_97 (> ?v_71 4)) (?v_72 (- t_B_ra_rb_gb1_2 t_B_ra_rb_gb3_2))) (let ((?v_98 (> ?v_72 4)) (?v_73 (- t_B_ra_rb_gb1_2 t_B_ra_rb_gb2_2))) (let ((?v_99 (> ?v_73 4)) (?v_83 (- t_B_ra_rb_gb1_2 t_A_ra_ga7_gb1_1))) (let ((?v_82 (> ?v_83 1)) (?v_85 (- t_B_ra_rb_gb1_2 t_A_ra_ga6_gb1_1))) (let ((?v_84 (> ?v_85 1)) (?v_87 (- t_B_ra_rb_gb1_2 t_A_ra_ga5_gb1_1))) (let ((?v_86 (> ?v_87 1)) (?v_89 (- t_B_ra_rb_gb1_2 t_A_ra_ga4_gb1_1))) (let ((?v_88 (> ?v_89 1)) (?v_91 (- t_B_ra_rb_gb1_2 t_A_ra_ga3_gb1_1))) (let ((?v_90 (> ?v_91 1)) (?v_93 (- t_B_ra_rb_gb1_2 t_A_ra_ga2_gb1_1))) (let ((?v_92 (> ?v_93 1)) (?v_151 (or ?v_55 ?v_81)) (?v_227 (< ?v_83 1))) (let ((?v_152 (or ?v_82 ?v_227)) (?v_218 (< ?v_85 1))) (let ((?v_153 (or ?v_84 ?v_218)) (?v_205 (< ?v_87 1))) (let ((?v_154 (or ?v_86 ?v_205)) (?v_188 (< ?v_89 1))) (let ((?v_155 (or ?v_88 ?v_188)) (?v_162 (< ?v_91 1))) (let ((?v_156 (or ?v_90 ?v_162)) (?v_108 (< ?v_93 1)) (?v_103 (- t_A_ra_ga7_gb1_1 t_A_ra_ga2_gb1_1)) (?v_104 (- t_A_ra_ga6_gb1_1 t_A_ra_ga2_gb1_1)) (?v_105 (- t_A_ra_ga5_gb1_1 t_A_ra_ga2_gb1_1)) (?v_106 (- t_A_ra_ga4_gb1_1 t_A_ra_ga2_gb1_1)) (?v_107 (- t_A_ra_ga3_gb1_1 t_A_ra_ga2_gb1_1)) (?v_111 (- t_A_ra_ga2_gb1_1 t_A_ra_ga7_gb1_1)) (?v_112 (- t_A_ra_ga2_gb1_1 t_A_ra_ga6_gb1_1)) (?v_113 (- t_A_ra_ga2_gb1_1 t_A_ra_ga5_gb1_1)) (?v_114 (- t_A_ra_ga2_gb1_1 t_A_ra_ga4_gb1_1)) (?v_115 (- t_A_ra_ga2_gb1_1 t_A_ra_ga3_gb1_1)) (?v_169 (or ?v_122 (> ?v_123 4))) (?v_226 (> ?v_125 4))) (let ((?v_170 (or ?v_124 ?v_226)) (?v_216 (> ?v_127 4))) (let ((?v_171 (or ?v_126 ?v_216)) (?v_202 (> ?v_129 4))) (let ((?v_172 (or ?v_128 ?v_202)) (?v_184 (> ?v_131 4))) (let ((?v_173 (or ?v_130 ?v_184)) (?v_157 (> ?v_133 4)) (?v_139 (- t_B_ra_rb_gb7_2 t_B_ra_rb_gb2_2)) (?v_140 (- t_B_ra_rb_gb6_2 t_B_ra_rb_gb2_2)) (?v_141 (- t_B_ra_rb_gb5_2 t_B_ra_rb_gb2_2)) (?v_142 (- t_B_ra_rb_gb4_2 t_B_ra_rb_gb2_2)) (?v_143 (- t_B_ra_rb_gb3_2 t_B_ra_rb_gb2_2)) (?v_146 (- t_B_ra_rb_gb2_2 t_B_ra_rb_gb7_2)) (?v_147 (- t_B_ra_rb_gb2_2 t_B_ra_rb_gb6_2)) (?v_148 (- t_B_ra_rb_gb2_2 t_B_ra_rb_gb5_2)) (?v_149 (- t_B_ra_rb_gb2_2 t_B_ra_rb_gb4_2)) (?v_150 (- t_B_ra_rb_gb2_2 t_B_ra_rb_gb3_2)) (?v_158 (- t_A_ra_ga7_gb1_1 t_A_ra_ga3_gb1_1)) (?v_159 (- t_A_ra_ga6_gb1_1 t_A_ra_ga3_gb1_1)) (?v_160 (- t_A_ra_ga5_gb1_1 t_A_ra_ga3_gb1_1)) (?v_161 (- t_A_ra_ga4_gb1_1 t_A_ra_ga3_gb1_1)) (?v_165 (- t_A_ra_ga3_gb1_1 t_A_ra_ga7_gb1_1)) (?v_166 (- t_A_ra_ga3_gb1_1 t_A_ra_ga6_gb1_1)) (?v_167 (- t_A_ra_ga3_gb1_1 t_A_ra_ga5_gb1_1)) (?v_168 (- t_A_ra_ga3_gb1_1 t_A_ra_ga4_gb1_1)) (?v_174 (- t_B_ra_rb_gb7_2 t_B_ra_rb_gb3_2)) (?v_175 (- t_B_ra_rb_gb6_2 t_B_ra_rb_gb3_2)) (?v_176 (- t_B_ra_rb_gb5_2 t_B_ra_rb_gb3_2)) (?v_177 (- t_B_ra_rb_gb4_2 t_B_ra_rb_gb3_2)) (?v_180 (- t_B_ra_rb_gb3_2 t_B_ra_rb_gb7_2)) (?v_181 (- t_B_ra_rb_gb3_2 t_B_ra_rb_gb6_2)) (?v_182 (- t_B_ra_rb_gb3_2 t_B_ra_rb_gb5_2)) (?v_183 (- t_B_ra_rb_gb3_2 t_B_ra_rb_gb4_2)) (?v_185 (- t_A_ra_ga7_gb1_1 t_A_ra_ga4_gb1_1)) (?v_186 (- t_A_ra_ga6_gb1_1 t_A_ra_ga4_gb1_1)) (?v_187 (- t_A_ra_ga5_gb1_1 t_A_ra_ga4_gb1_1)) (?v_191 (- t_A_ra_ga4_gb1_1 t_A_ra_ga7_gb1_1)) (?v_192 (- t_A_ra_ga4_gb1_1 t_A_ra_ga6_gb1_1)) (?v_193 (- t_A_ra_ga4_gb1_1 t_A_ra_ga5_gb1_1)) (?v_194 (- t_B_ra_rb_gb7_2 t_B_ra_rb_gb4_2)) (?v_195 (- t_B_ra_rb_gb6_2 t_B_ra_rb_gb4_2)) (?v_196 (- t_B_ra_rb_gb5_2 t_B_ra_rb_gb4_2)) (?v_199 (- t_B_ra_rb_gb4_2 t_B_ra_rb_gb7_2)) (?v_200 (- t_B_ra_rb_gb4_2 t_B_ra_rb_gb6_2)) (?v_201 (- t_B_ra_rb_gb4_2 t_B_ra_rb_gb5_2)) (?v_203 (- t_A_ra_ga7_gb1_1 t_A_ra_ga5_gb1_1)) (?v_204 (- t_A_ra_ga6_gb1_1 t_A_ra_ga5_gb1_1)) (?v_208 (- t_A_ra_ga5_gb1_1 t_A_ra_ga7_gb1_1)) (?v_209 (- t_A_ra_ga5_gb1_1 t_A_ra_ga6_gb1_1)) (?v_210 (- t_B_ra_rb_gb7_2 t_B_ra_rb_gb5_2)) (?v_211 (- t_B_ra_rb_gb6_2 t_B_ra_rb_gb5_2)) (?v_214 (- t_B_ra_rb_gb5_2 t_B_ra_rb_gb7_2)) (?v_215 (- t_B_ra_rb_gb5_2 t_B_ra_rb_gb6_2)) (?v_217 (- t_A_ra_ga7_gb1_1 t_A_ra_ga6_gb1_1)) (?v_221 (- t_A_ra_ga6_gb1_1 t_A_ra_ga7_gb1_1)) (?v_222 (- t_B_ra_rb_gb7_2 t_B_ra_rb_gb6_2)) (?v_225 (- t_B_ra_rb_gb6_2 t_B_ra_rb_gb7_2))) (and (= St_spy_variable (+ 1 t_Init_0)) (>= t_Goal_4 t_Init_0) (>= (- t_C_rb_ga1_gc1_3 t_Init_0) 0) (>= ?v_10 1) (>= (- t_A_ra_ga2_gb1_1 t_Init_0) 0) (>= ?v_11 5) (>= (- t_B_ra_rb_gb2_2 t_Init_0) 0) (>= ?v_20 4) (>= (- t_C_rb_ga1_gc2_3 t_Init_0) 0) (>= ?v_22 1) (>= (- t_A_ra_ga3_gb1_1 t_Init_0) 0) (>= ?v_23 5) (>= (- t_B_ra_rb_gb3_2 t_Init_0) 0) (>= ?v_25 4) (>= (- t_C_rb_ga1_gc3_3 t_Init_0) 0) (>= ?v_27 1) (>= (- t_A_ra_ga4_gb1_1 t_Init_0) 0) (>= ?v_28 5) (>= (- t_B_ra_rb_gb4_2 t_Init_0) 0) (>= ?v_30 4) (>= (- t_C_rb_ga1_gc4_3 t_Init_0) 0) (>= ?v_32 1) (>= (- t_A_ra_ga5_gb1_1 t_Init_0) 0) (>= ?v_33 5) (>= (- t_B_ra_rb_gb5_2 t_Init_0) 0) (>= ?v_35 4) (>= (- t_C_rb_ga1_gc5_3 t_Init_0) 0) (>= ?v_37 1) (>= (- t_A_ra_ga6_gb1_1 t_Init_0) 0) (>= ?v_38 5) (>= (- t_B_ra_rb_gb6_2 t_Init_0) 0) (>= ?v_40 4) (>= (- t_C_rb_ga1_gc6_3 t_Init_0) 0) (>= ?v_42 1) (>= (- t_A_ra_ga7_gb1_1 t_Init_0) 0) (>= ?v_43 5) (>= (- t_B_ra_rb_gb7_2 t_Init_0) 0) (>= ?v_45 4) (>= (- t_A_ra_ga1_gb1_1 t_Init_0) 0) (>= ?v_0 5) (>= (- t_B_ra_rb_gb1_2 t_Init_0) 0) (>= ?v_1 4) (>= (- t_C_rb_ga1_gc7_3 t_Init_0) 0) (>= ?v_48 1) ?v_12 ?v_13 ?v_14 ?v_15 ?v_16 ?v_17 ?v_18 (>= ?v_0 6) ?v_2 ?v_3 ?v_4 ?v_5 ?v_6 ?v_7 ?v_8 (>= ?v_1 5) ?v_2 ?v_3 ?v_4 ?v_5 ?v_6 ?v_7 ?v_8 ?v_8 (>= ?v_9 0) (>= ?v_10 2) (>= ?v_11 6) ?v_12 ?v_13 ?v_14 ?v_15 ?v_16 ?v_17 ?v_18 ?v_18 (>= ?v_19 0) (>= ?v_20 5) ?v_2 ?v_3 ?v_4 ?v_5 ?v_6 ?v_7 ?v_7 (>= ?v_21 0) (>= ?v_22 2) (>= ?v_23 6) ?v_12 ?v_13 ?v_14 ?v_15 ?v_16 ?v_17 ?v_17 (>= ?v_24 0) (>= ?v_25 5) ?v_2 ?v_3 ?v_4 ?v_5 ?v_6 ?v_6 (>= ?v_26 0) (>= ?v_27 2) (>= ?v_28 6) ?v_12 ?v_13 ?v_14 ?v_15 ?v_16 ?v_16 (>= ?v_29 0) (>= ?v_30 5) ?v_2 ?v_3 ?v_4 ?v_5 ?v_5 (>= ?v_31 0) (>= ?v_32 2) (>= ?v_33 6) ?v_12 ?v_13 ?v_14 ?v_15 ?v_15 (>= ?v_34 0) (>= ?v_35 5) ?v_2 ?v_3 ?v_4 ?v_4 (>= ?v_36 0) (>= ?v_37 2) (>= ?v_38 6) ?v_12 ?v_13 ?v_14 ?v_14 (>= ?v_39 0) (>= ?v_40 5) ?v_2 ?v_3 ?v_3 (>= ?v_41 0) (>= ?v_42 2) (>= ?v_43 6) ?v_12 ?v_13 ?v_13 (>= ?v_44 0) (>= ?v_45 5) ?v_12 (>= ?v_46 0) ?v_2 (>= ?v_47 0) (>= ?v_48 2) ?v_116 ?v_117 ?v_118 ?v_119 ?v_120 (or ?v_110 ?v_109) ?v_121 (or ?v_74 ?v_55) (or ?v_134 (< ?v_56 5)) (or ?v_135 (< ?v_57 5)) (or ?v_136 (< ?v_58 5)) (or ?v_137 (< ?v_59 5)) (or ?v_138 (< ?v_60 5)) (or ?v_102 (< ?v_61 5)) (or ?v_122 (< ?v_48 2)) (or ?v_124 (< ?v_42 2)) (or ?v_126 (< ?v_37 2)) (or ?v_128 (< ?v_32 2)) (or ?v_130 (< ?v_27 2)) (or ?v_132 (< ?v_22 2)) (or ?v_101 (< ?v_10 2)) ?v_75 ?v_76 ?v_77 ?v_78 ?v_79 ?v_80 (or ?v_94 (< ?v_68 4)) (or ?v_95 (< ?v_69 4)) (or ?v_96 (< ?v_70 4)) (or ?v_97 (< ?v_71 4)) (or ?v_98 (< ?v_72 4)) (or ?v_99 (< ?v_73 4)) (or ?v_55 ?v_74) (or ?v_82 (< ?v_43 6)) (or ?v_84 (< ?v_38 6)) (or ?v_86 (< ?v_33 6)) (or ?v_88 (< ?v_28 6)) (or ?v_90 (< ?v_23 6)) (or ?v_92 (< ?v_11 6)) ?v_75 ?v_76 ?v_77 ?v_78 ?v_79 ?v_80 ?v_151 ?v_152 ?v_153 ?v_154 ?v_155 ?v_156 (or ?v_92 ?v_108) (or ?v_94 (< (- t_C_rb_ga1_gc1_3 t_B_ra_rb_gb7_2) 4)) (or ?v_95 (< (- t_C_rb_ga1_gc1_3 t_B_ra_rb_gb6_2) 4)) (or ?v_96 (< (- t_C_rb_ga1_gc1_3 t_B_ra_rb_gb5_2) 4)) (or ?v_97 (< (- t_C_rb_ga1_gc1_3 t_B_ra_rb_gb4_2) 4)) (or ?v_98 (< (- t_C_rb_ga1_gc1_3 t_B_ra_rb_gb3_2) 4)) (or ?v_99 (< (- t_C_rb_ga1_gc1_3 t_B_ra_rb_gb2_2) 4)) (or (> ?v_100 4) ?v_101) (or (< ?v_93 5) ?v_102) (or (< (- t_B_ra_rb_gb7_2 t_A_ra_ga2_gb1_1) 5) ?v_102) (or (< ?v_103 5) (> ?v_103 5)) (or (< (- t_B_ra_rb_gb6_2 t_A_ra_ga2_gb1_1) 5) ?v_102) (or (< ?v_104 5) (> ?v_104 5)) (or (< (- t_B_ra_rb_gb5_2 t_A_ra_ga2_gb1_1) 5) ?v_102) (or (< ?v_105 5) (> ?v_105 5)) (or (< (- t_B_ra_rb_gb4_2 t_A_ra_ga2_gb1_1) 5) ?v_102) (or (< ?v_106 5) (> ?v_106 5)) (or (< (- t_B_ra_rb_gb3_2 t_A_ra_ga2_gb1_1) 5) ?v_102) (or (< ?v_107 5) (> ?v_107 5)) (or (< (- t_B_ra_rb_gb2_2 t_A_ra_ga2_gb1_1) 5) ?v_102) (or ?v_108 ?v_92) (or ?v_109 ?v_110) (or (> ?v_111 5) (< ?v_111 5)) (or (> ?v_112 5) (< ?v_112 5)) (or (> ?v_113 5) (< ?v_113 5)) (or (> ?v_114 5) (< ?v_114 5)) (or (> ?v_115 5) (< ?v_115 5)) ?v_116 ?v_117 ?v_118 ?v_119 ?v_120 ?v_121 ?v_169 ?v_170 ?v_171 ?v_172 ?v_173 (or ?v_132 ?v_157) (or ?v_134 (< (- t_B_ra_rb_gb2_2 t_A_ra_ga7_gb1_1) 5)) (or ?v_135 (< (- t_B_ra_rb_gb2_2 t_A_ra_ga6_gb1_1) 5)) (or ?v_136 (< (- t_B_ra_rb_gb2_2 t_A_ra_ga5_gb1_1) 5)) (or ?v_137 (< (- t_B_ra_rb_gb2_2 t_A_ra_ga4_gb1_1) 5)) (or ?v_138 (< (- t_B_ra_rb_gb2_2 t_A_ra_ga3_gb1_1) 5)) (or (< (- t_C_rb_ga1_gc7_3 t_B_ra_rb_gb2_2) 4) ?v_99) (or (< ?v_139 4) (> ?v_139 4)) (or (< (- t_C_rb_ga1_gc6_3 t_B_ra_rb_gb2_2) 4) ?v_99) (or (< ?v_140 4) (> ?v_140 4)) (or (< (- t_C_rb_ga1_gc5_3 t_B_ra_rb_gb2_2) 4) ?v_99) (or (< ?v_141 4) (> ?v_141 4)) (or (< (- t_C_rb_ga1_gc4_3 t_B_ra_rb_gb2_2) 4) ?v_99) (or (< ?v_142 4) (> ?v_142 4)) (or (< (- t_C_rb_ga1_gc3_3 t_B_ra_rb_gb2_2) 4) ?v_99) (or (< ?v_143 4) (> ?v_143 4)) (or (< (- t_C_rb_ga1_gc2_3 t_B_ra_rb_gb2_2) 4) ?v_99) (or ?v_144 ?v_145) (or (> ?v_146 4) (< ?v_146 4)) (or (> ?v_147 4) (< ?v_147 4)) (or (> ?v_148 4) (< ?v_148 4)) (or (> ?v_149 4) (< ?v_149 4)) (or (> ?v_150 4) (< ?v_150 4)) ?v_75 ?v_76 ?v_77 ?v_78 ?v_79 ?v_151 ?v_152 ?v_153 ?v_154 ?v_155 ?v_156 (or ?v_94 (< (- t_C_rb_ga1_gc2_3 t_B_ra_rb_gb7_2) 4)) (or ?v_95 (< (- t_C_rb_ga1_gc2_3 t_B_ra_rb_gb6_2) 4)) (or ?v_96 (< (- t_C_rb_ga1_gc2_3 t_B_ra_rb_gb5_2) 4)) (or ?v_97 (< (- t_C_rb_ga1_gc2_3 t_B_ra_rb_gb4_2) 4)) (or ?v_98 (< (- t_C_rb_ga1_gc2_3 t_B_ra_rb_gb3_2) 4)) (or ?v_157 ?v_132) (or (< ?v_91 5) ?v_138) (or (< (- t_B_ra_rb_gb7_2 t_A_ra_ga3_gb1_1) 5) ?v_138) (or (< ?v_158 5) (> ?v_158 5)) (or (< (- t_B_ra_rb_gb6_2 t_A_ra_ga3_gb1_1) 5) ?v_138) (or (< ?v_159 5) (> ?v_159 5)) (or (< (- t_B_ra_rb_gb5_2 t_A_ra_ga3_gb1_1) 5) ?v_138) (or (< ?v_160 5) (> ?v_160 5)) (or (< (- t_B_ra_rb_gb4_2 t_A_ra_ga3_gb1_1) 5) ?v_138) (or (< ?v_161 5) (> ?v_161 5)) (or (< (- t_B_ra_rb_gb3_2 t_A_ra_ga3_gb1_1) 5) ?v_138) (or ?v_162 ?v_90) (or ?v_163 ?v_164) (or (> ?v_165 5) (< ?v_165 5)) (or (> ?v_166 5) (< ?v_166 5)) (or (> ?v_167 5) (< ?v_167 5)) (or (> ?v_168 5) (< ?v_168 5)) ?v_116 ?v_117 ?v_118 ?v_119 ?v_121 ?v_169 ?v_170 ?v_171 ?v_172 ?v_173 (or ?v_134 (< (- t_B_ra_rb_gb3_2 t_A_ra_ga7_gb1_1) 5)) (or ?v_135 (< (- t_B_ra_rb_gb3_2 t_A_ra_ga6_gb1_1) 5)) (or ?v_136 (< (- t_B_ra_rb_gb3_2 t_A_ra_ga5_gb1_1) 5)) (or ?v_137 (< (- t_B_ra_rb_gb3_2 t_A_ra_ga4_gb1_1) 5)) (or (< (- t_C_rb_ga1_gc7_3 t_B_ra_rb_gb3_2) 4) ?v_98) (or (< ?v_174 4) (> ?v_174 4)) (or (< (- t_C_rb_ga1_gc6_3 t_B_ra_rb_gb3_2) 4) ?v_98) (or (< ?v_175 4) (> ?v_175 4)) (or (< (- t_C_rb_ga1_gc5_3 t_B_ra_rb_gb3_2) 4) ?v_98) (or (< ?v_176 4) (> ?v_176 4)) (or (< (- t_C_rb_ga1_gc4_3 t_B_ra_rb_gb3_2) 4) ?v_98) (or (< ?v_177 4) (> ?v_177 4)) (or (< (- t_C_rb_ga1_gc3_3 t_B_ra_rb_gb3_2) 4) ?v_98) (or ?v_178 ?v_179) (or (> ?v_180 4) (< ?v_180 4)) (or (> ?v_181 4) (< ?v_181 4)) (or (> ?v_182 4) (< ?v_182 4)) (or (> ?v_183 4) (< ?v_183 4)) ?v_75 ?v_76 ?v_77 ?v_78 ?v_151 ?v_152 ?v_153 ?v_154 ?v_155 (or ?v_94 (< (- t_C_rb_ga1_gc3_3 t_B_ra_rb_gb7_2) 4)) (or ?v_95 (< (- t_C_rb_ga1_gc3_3 t_B_ra_rb_gb6_2) 4)) (or ?v_96 (< (- t_C_rb_ga1_gc3_3 t_B_ra_rb_gb5_2) 4)) (or ?v_97 (< (- t_C_rb_ga1_gc3_3 t_B_ra_rb_gb4_2) 4)) (or ?v_184 ?v_130) (or (< ?v_89 5) ?v_137) (or (< (- t_B_ra_rb_gb7_2 t_A_ra_ga4_gb1_1) 5) ?v_137) (or (< ?v_185 5) (> ?v_185 5)) (or (< (- t_B_ra_rb_gb6_2 t_A_ra_ga4_gb1_1) 5) ?v_137) (or (< ?v_186 5) (> ?v_186 5)) (or (< (- t_B_ra_rb_gb5_2 t_A_ra_ga4_gb1_1) 5) ?v_137) (or (< ?v_187 5) (> ?v_187 5)) (or (< (- t_B_ra_rb_gb4_2 t_A_ra_ga4_gb1_1) 5) ?v_137) (or ?v_188 ?v_88) (or ?v_189 ?v_190) (or (> ?v_191 5) (< ?v_191 5)) (or (> ?v_192 5) (< ?v_192 5)) (or (> ?v_193 5) (< ?v_193 5)) ?v_116 ?v_117 ?v_118 ?v_121 ?v_169 ?v_170 ?v_171 ?v_172 (or ?v_134 (< (- t_B_ra_rb_gb4_2 t_A_ra_ga7_gb1_1) 5)) (or ?v_135 (< (- t_B_ra_rb_gb4_2 t_A_ra_ga6_gb1_1) 5)) (or ?v_136 (< (- t_B_ra_rb_gb4_2 t_A_ra_ga5_gb1_1) 5)) (or (< (- t_C_rb_ga1_gc7_3 t_B_ra_rb_gb4_2) 4) ?v_97) (or (< ?v_194 4) (> ?v_194 4)) (or (< (- t_C_rb_ga1_gc6_3 t_B_ra_rb_gb4_2) 4) ?v_97) (or (< ?v_195 4) (> ?v_195 4)) (or (< (- t_C_rb_ga1_gc5_3 t_B_ra_rb_gb4_2) 4) ?v_97) (or (< ?v_196 4) (> ?v_196 4)) (or (< (- t_C_rb_ga1_gc4_3 t_B_ra_rb_gb4_2) 4) ?v_97) (or ?v_197 ?v_198) (or (> ?v_199 4) (< ?v_199 4)) (or (> ?v_200 4) (< ?v_200 4)) (or (> ?v_201 4) (< ?v_201 4)) ?v_75 ?v_76 ?v_77 ?v_151 ?v_152 ?v_153 ?v_154 (or ?v_94 (< (- t_C_rb_ga1_gc4_3 t_B_ra_rb_gb7_2) 4)) (or ?v_95 (< (- t_C_rb_ga1_gc4_3 t_B_ra_rb_gb6_2) 4)) (or ?v_96 (< (- t_C_rb_ga1_gc4_3 t_B_ra_rb_gb5_2) 4)) (or ?v_202 ?v_128) (or (< ?v_87 5) ?v_136) (or (< (- t_B_ra_rb_gb7_2 t_A_ra_ga5_gb1_1) 5) ?v_136) (or (< ?v_203 5) (> ?v_203 5)) (or (< (- t_B_ra_rb_gb6_2 t_A_ra_ga5_gb1_1) 5) ?v_136) (or (< ?v_204 5) (> ?v_204 5)) (or (< (- t_B_ra_rb_gb5_2 t_A_ra_ga5_gb1_1) 5) ?v_136) (or ?v_205 ?v_86) (or ?v_206 ?v_207) (or (> ?v_208 5) (< ?v_208 5)) (or (> ?v_209 5) (< ?v_209 5)) ?v_116 ?v_117 ?v_121 ?v_169 ?v_170 ?v_171 (or ?v_134 (< (- t_B_ra_rb_gb5_2 t_A_ra_ga7_gb1_1) 5)) (or ?v_135 (< (- t_B_ra_rb_gb5_2 t_A_ra_ga6_gb1_1) 5)) (or (< (- t_C_rb_ga1_gc7_3 t_B_ra_rb_gb5_2) 4) ?v_96) (or (< ?v_210 4) (> ?v_210 4)) (or (< (- t_C_rb_ga1_gc6_3 t_B_ra_rb_gb5_2) 4) ?v_96) (or (< ?v_211 4) (> ?v_211 4)) (or (< (- t_C_rb_ga1_gc5_3 t_B_ra_rb_gb5_2) 4) ?v_96) (or ?v_212 ?v_213) (or (> ?v_214 4) (< ?v_214 4)) (or (> ?v_215 4) (< ?v_215 4)) ?v_75 ?v_76 ?v_151 ?v_152 ?v_153 (or ?v_94 (< (- t_C_rb_ga1_gc5_3 t_B_ra_rb_gb7_2) 4)) (or ?v_95 (< (- t_C_rb_ga1_gc5_3 t_B_ra_rb_gb6_2) 4)) (or ?v_216 ?v_126) (or (< ?v_85 5) ?v_135) (or (< (- t_B_ra_rb_gb7_2 t_A_ra_ga6_gb1_1) 5) ?v_135) (or (< ?v_217 5) (> ?v_217 5)) (or (< (- t_B_ra_rb_gb6_2 t_A_ra_ga6_gb1_1) 5) ?v_135) (or ?v_218 ?v_84) (or ?v_219 ?v_220) (or (> ?v_221 5) (< ?v_221 5)) ?v_116 ?v_121 ?v_169 ?v_170 (or ?v_134 (< (- t_B_ra_rb_gb6_2 t_A_ra_ga7_gb1_1) 5)) (or (< (- t_C_rb_ga1_gc7_3 t_B_ra_rb_gb6_2) 4) ?v_95) (or (< ?v_222 4) (> ?v_222 4)) (or (< (- t_C_rb_ga1_gc6_3 t_B_ra_rb_gb6_2) 4) ?v_95) (or ?v_223 ?v_224) (or (> ?v_225 4) (< ?v_225 4)) ?v_75 ?v_151 ?v_152 (or ?v_94 (< (- t_C_rb_ga1_gc6_3 t_B_ra_rb_gb7_2) 4)) (or ?v_226 ?v_124) (or (< ?v_83 5) ?v_134) (or (< (- t_B_ra_rb_gb7_2 t_A_ra_ga7_gb1_1) 5) ?v_134) (or ?v_227 ?v_82) (or ?v_228 ?v_229) ?v_121 ?v_169 (or (< (- t_C_rb_ga1_gc7_3 t_B_ra_rb_gb7_2) 4) ?v_94) (or ?v_230 ?v_231) ?v_121 ?v_169)))))))))))))))))))))))))))))))))))))))))))))))))))))))))))))))))))))))))))
(check-sat)
(exit)
